2
1000 4
126
14 1 1
15 1 2
16 1 1
17 1 2
19 1 2
20 1 1
21 1 2
26 1 1
27 1 1
28 1 2
31 1 2
32 1 2
33 1 1
34 1 1
36 1 2
40 1 3
42 1 3
43 1 1
44 1 2
46 1 1
47 1 2
49 1 3
50 1 1
51 1 1
52 1 1
54 1 1
55 1 1
56 1 1
58 1 1
59 1 1
61 1 3
62 1 1
64 1 1
65 1 1
66 1 3
68 1 1
69 1 3
70 1 2
72 1 2
73 1 1
75 1 4
80 1 2
81 1 2
82 1 1
86 1 1
87 1 3
88 1 1
91 1 3
92 1 2
96 1 1
98 1 1
101 1 1
102 1 1
104 1 1
105 1 2
106 1 1
107 1 2
108 1 2
109 1 2
111 1 1
114 1 2
115 1 1
117 1 1
118 1 1
119 1 1
120 1 1
122 1 3
123 1 1
124 1 1
125 1 2
127 1 1
129 1 2
130 1 1
131 1 2
132 1 2
133 1 2
134 1 1
136 1 2
137 1 1
138 1 1
139 1 2
140 1 2
141 1 1
142 1 2
143 1 1
147 1 2
148 1 2
151 1 2
152 1 2
153 1 2
155 1 1
157 1 1
158 1 2
159 1 2
161 1 1
164 1 1
166 1 2
167 1 2
170 1 2
172 1 1
173 1 1
174 1 3
175 1 1
176 1 1
178 1 1
179 1 1
181 1 1
182 1 1
183 1 1
184 1 1
185 1 1
187 1 1
189 1 1
190 1 3
191 1 1
192 1 2
193 1 3
194 1 2
195 1 1
201 1 2
202 1 2
204 1 2
205 1 3
207 1 1
208 1 2
209 1 1
